p cnf 200 1532
1 2 3 4 5 0
6 7 8 9 10 0
11 12 13 14 15 0
16 17 18 19 20 0
21 22 23 24 25 0
26 27 28 29 30 0
31 32 33 34 35 0
36 37 38 39 40 0
41 42 43 44 45 0
46 47 48 49 50 0
51 52 53 54 55 0
56 57 58 59 60 0
61 62 63 64 65 0
66 67 68 69 70 0
71 72 73 74 75 0
76 77 78 79 80 0
81 82 83 84 85 0
86 87 88 89 90 0
91 92 93 94 95 0
96 97 98 99 100 0
101 102 103 104 105 0
106 107 108 109 110 0
111 112 113 114 115 0
116 117 118 119 120 0
121 122 123 124 125 0
126 127 128 129 130 0
131 132 133 134 135 0
136 137 138 139 140 0
141 142 143 144 145 0
146 147 148 149 150 0
151 152 153 154 155 0
156 157 158 159 160 0
161 162 163 164 165 0
166 167 168 169 170 0
171 172 173 174 175 0
176 177 178 179 180 0
181 182 183 184 185 0
186 187 188 189 190 0
191 192 193 194 195 0
196 197 198 199 200 0
-1 -2 0
-1 -3 0
-1 -4 0
-1 -5 0
-2 -3 0
-2 -4 0
-2 -5 0
-3 -4 0
-3 -5 0
-4 -5 0
-6 -7 0
-6 -8 0
-6 -9 0
-6 -10 0
-7 -8 0
-7 -9 0
-7 -10 0
-8 -9 0
-8 -10 0
-9 -10 0
-11 -12 0
-11 -13 0
-11 -14 0
-11 -15 0
-12 -13 0
-12 -14 0
-12 -15 0
-13 -14 0
-13 -15 0
-14 -15 0
-16 -17 0
-16 -18 0
-16 -19 0
-16 -20 0
-17 -18 0
-17 -19 0
-17 -20 0
-18 -19 0
-18 -20 0
-19 -20 0
-21 -22 0
-21 -23 0
-21 -24 0
-21 -25 0
-22 -23 0
-22 -24 0
-22 -25 0
-23 -24 0
-23 -25 0
-24 -25 0
-26 -27 0
-26 -28 0
-26 -29 0
-26 -30 0
-27 -28 0
-27 -29 0
-27 -30 0
-28 -29 0
-28 -30 0
-29 -30 0
-31 -32 0
-31 -33 0
-31 -34 0
-31 -35 0
-32 -33 0
-32 -34 0
-32 -35 0
-33 -34 0
-33 -35 0
-34 -35 0
-36 -37 0
-36 -38 0
-36 -39 0
-36 -40 0
-37 -38 0
-37 -39 0
-37 -40 0
-38 -39 0
-38 -40 0
-39 -40 0
-41 -42 0
-41 -43 0
-41 -44 0
-41 -45 0
-42 -43 0
-42 -44 0
-42 -45 0
-43 -44 0
-43 -45 0
-44 -45 0
-46 -47 0
-46 -48 0
-46 -49 0
-46 -50 0
-47 -48 0
-47 -49 0
-47 -50 0
-48 -49 0
-48 -50 0
-49 -50 0
-51 -52 0
-51 -53 0
-51 -54 0
-51 -55 0
-52 -53 0
-52 -54 0
-52 -55 0
-53 -54 0
-53 -55 0
-54 -55 0
-56 -57 0
-56 -58 0
-56 -59 0
-56 -60 0
-57 -58 0
-57 -59 0
-57 -60 0
-58 -59 0
-58 -60 0
-59 -60 0
-61 -62 0
-61 -63 0
-61 -64 0
-61 -65 0
-62 -63 0
-62 -64 0
-62 -65 0
-63 -64 0
-63 -65 0
-64 -65 0
-66 -67 0
-66 -68 0
-66 -69 0
-66 -70 0
-67 -68 0
-67 -69 0
-67 -70 0
-68 -69 0
-68 -70 0
-69 -70 0
-71 -72 0
-71 -73 0
-71 -74 0
-71 -75 0
-72 -73 0
-72 -74 0
-72 -75 0
-73 -74 0
-73 -75 0
-74 -75 0
-76 -77 0
-76 -78 0
-76 -79 0
-76 -80 0
-77 -78 0
-77 -79 0
-77 -80 0
-78 -79 0
-78 -80 0
-79 -80 0
-81 -82 0
-81 -83 0
-81 -84 0
-81 -85 0
-82 -83 0
-82 -84 0
-82 -85 0
-83 -84 0
-83 -85 0
-84 -85 0
-86 -87 0
-86 -88 0
-86 -89 0
-86 -90 0
-87 -88 0
-87 -89 0
-87 -90 0
-88 -89 0
-88 -90 0
-89 -90 0
-91 -92 0
-91 -93 0
-91 -94 0
-91 -95 0
-92 -93 0
-92 -94 0
-92 -95 0
-93 -94 0
-93 -95 0
-94 -95 0
-96 -97 0
-96 -98 0
-96 -99 0
-96 -100 0
-97 -98 0
-97 -99 0
-97 -100 0
-98 -99 0
-98 -100 0
-99 -100 0
-101 -102 0
-101 -103 0
-101 -104 0
-101 -105 0
-102 -103 0
-102 -104 0
-102 -105 0
-103 -104 0
-103 -105 0
-104 -105 0
-106 -107 0
-106 -108 0
-106 -109 0
-106 -110 0
-107 -108 0
-107 -109 0
-107 -110 0
-108 -109 0
-108 -110 0
-109 -110 0
-111 -112 0
-111 -113 0
-111 -114 0
-111 -115 0
-112 -113 0
-112 -114 0
-112 -115 0
-113 -114 0
-113 -115 0
-114 -115 0
-116 -117 0
-116 -118 0
-116 -119 0
-116 -120 0
-117 -118 0
-117 -119 0
-117 -120 0
-118 -119 0
-118 -120 0
-119 -120 0
-121 -122 0
-121 -123 0
-121 -124 0
-121 -125 0
-122 -123 0
-122 -124 0
-122 -125 0
-123 -124 0
-123 -125 0
-124 -125 0
-126 -127 0
-126 -128 0
-126 -129 0
-126 -130 0
-127 -128 0
-127 -129 0
-127 -130 0
-128 -129 0
-128 -130 0
-129 -130 0
-131 -132 0
-131 -133 0
-131 -134 0
-131 -135 0
-132 -133 0
-132 -134 0
-132 -135 0
-133 -134 0
-133 -135 0
-134 -135 0
-136 -137 0
-136 -138 0
-136 -139 0
-136 -140 0
-137 -138 0
-137 -139 0
-137 -140 0
-138 -139 0
-138 -140 0
-139 -140 0
-141 -142 0
-141 -143 0
-141 -144 0
-141 -145 0
-142 -143 0
-142 -144 0
-142 -145 0
-143 -144 0
-143 -145 0
-144 -145 0
-146 -147 0
-146 -148 0
-146 -149 0
-146 -150 0
-147 -148 0
-147 -149 0
-147 -150 0
-148 -149 0
-148 -150 0
-149 -150 0
-151 -152 0
-151 -153 0
-151 -154 0
-151 -155 0
-152 -153 0
-152 -154 0
-152 -155 0
-153 -154 0
-153 -155 0
-154 -155 0
-156 -157 0
-156 -158 0
-156 -159 0
-156 -160 0
-157 -158 0
-157 -159 0
-157 -160 0
-158 -159 0
-158 -160 0
-159 -160 0
-161 -162 0
-161 -163 0
-161 -164 0
-161 -165 0
-162 -163 0
-162 -164 0
-162 -165 0
-163 -164 0
-163 -165 0
-164 -165 0
-166 -167 0
-166 -168 0
-166 -169 0
-166 -170 0
-167 -168 0
-167 -169 0
-167 -170 0
-168 -169 0
-168 -170 0
-169 -170 0
-171 -172 0
-171 -173 0
-171 -174 0
-171 -175 0
-172 -173 0
-172 -174 0
-172 -175 0
-173 -174 0
-173 -175 0
-174 -175 0
-176 -177 0
-176 -178 0
-176 -179 0
-176 -180 0
-177 -178 0
-177 -179 0
-177 -180 0
-178 -179 0
-178 -180 0
-179 -180 0
-181 -182 0
-181 -183 0
-181 -184 0
-181 -185 0
-182 -183 0
-182 -184 0
-182 -185 0
-183 -184 0
-183 -185 0
-184 -185 0
-186 -187 0
-186 -188 0
-186 -189 0
-186 -190 0
-187 -188 0
-187 -189 0
-187 -190 0
-188 -189 0
-188 -190 0
-189 -190 0
-191 -192 0
-191 -193 0
-191 -194 0
-191 -195 0
-192 -193 0
-192 -194 0
-192 -195 0
-193 -194 0
-193 -195 0
-194 -195 0
-196 -197 0
-196 -198 0
-196 -199 0
-196 -200 0
-197 -198 0
-197 -199 0
-197 -200 0
-198 -199 0
-198 -200 0
-199 -200 0
-3 -7 0
-1 -7 0
-1 -18 0
-1 -20 0
-4 -24 0
-3 -21 0
-1 -30 0
-4 -29 0
-5 -38 0
-2 -39 0
-4 -58 0
-1 -57 0
-4 -62 0
-5 -64 0
-3 -70 0
-4 -67 0
-5 -75 0
-1 -73 0
-1 -85 0
-3 -85 0
-3 -86 0
-5 -88 0
-3 -95 0
-2 -94 0
-3 -96 0
-1 -98 0
-1 -105 0
-3 -103 0
-2 -107 0
-3 -106 0
-2 -112 0
-3 -113 0
-4 -121 0
-4 -123 0
-4 -130 0
-1 -128 0
-5 -139 0
-2 -136 0
-2 -143 0
-2 -144 0
-1 -148 0
-3 -148 0
-5 -155 0
-3 -154 0
-5 -160 0
-5 -156 0
-3 -164 0
-2 -163 0
-1 -167 0
-4 -169 0
-4 -180 0
-5 -180 0
-3 -184 0
-2 -182 0
-2 -188 0
-3 -190 0
-4 -199 0
-1 -196 0
-6 -13 0
-8 -14 0
-9 -17 0
-8 -19 0
-10 -23 0
-7 -23 0
-10 -42 0
-9 -43 0
-9 -50 0
-8 -49 0
-6 -54 0
-9 -54 0
-9 -60 0
-8 -56 0
-6 -61 0
-10 -64 0
-9 -70 0
-7 -68 0
-7 -76 0
-9 -78 0
-10 -83 0
-7 -84 0
-8 -93 0
-8 -95 0
-10 -97 0
-8 -96 0
-7 -109 0
-9 -108 0
-7 -112 0
-8 -113 0
-9 -120 0
-8 -119 0
-10 -122 0
-9 -123 0
-8 -126 0
-6 -127 0
-10 -131 0
-8 -134 0
-8 -142 0
-9 -141 0
-7 -147 0
-6 -149 0
-8 -153 0
-9 -155 0
-8 -158 0
-7 -160 0
-7 -164 0
-10 -164 0
-10 -176 0
-9 -176 0
-10 -185 0
-8 -183 0
-10 -188 0
-10 -189 0
-10 -193 0
-10 -192 0
-10 -197 0
-9 -200 0
-11 -17 0
-12 -19 0
-11 -22 0
-12 -25 0
-11 -28 0
-11 -27 0
-12 -31 0
-14 -32 0
-11 -36 0
-11 -38 0
-15 -42 0
-12 -45 0
-14 -48 0
-14 -49 0
-12 -53 0
-14 -54 0
-13 -63 0
-11 -61 0
-12 -70 0
-15 -66 0
-13 -73 0
-15 -74 0
-13 -80 0
-14 -80 0
-11 -81 0
-14 -82 0
-14 -87 0
-12 -86 0
-15 -97 0
-14 -98 0
-15 -103 0
-13 -103 0
-14 -110 0
-12 -109 0
-15 -111 0
-12 -115 0
-15 -118 0
-13 -119 0
-12 -122 0
-13 -125 0
-14 -145 0
-13 -142 0
-11 -146 0
-13 -148 0
-15 -154 0
-15 -152 0
-14 -156 0
-15 -159 0
-15 -163 0
-14 -165 0
-14 -178 0
-12 -176 0
-14 -184 0
-14 -185 0
-12 -190 0
-14 -186 0
-11 -194 0
-11 -191 0
-13 -196 0
-11 -200 0
-16 -37 0
-17 -36 0
-20 -41 0
-20 -43 0
-16 -47 0
-18 -47 0
-18 -52 0
-20 -55 0
-20 -59 0
-19 -56 0
-16 -75 0
-16 -74 0
-18 -76 0
-16 -80 0
-20 -82 0
-17 -82 0
-19 -98 0
-18 -96 0
-17 -112 0
-17 -111 0
-20 -119 0
-18 -118 0
-18 -124 0
-17 -123 0
-18 -126 0
-20 -130 0
-17 -132 0
-18 -131 0
-16 -136 0
-20 -137 0
-17 -153 0
-18 -154 0
-20 -158 0
-17 -157 0
-18 -164 0
-16 -162 0
-17 -170 0
-18 -170 0
-20 -174 0
-20 -171 0
-18 -190 0
-19 -189 0
-16 -191 0
-17 -194 0
-25 -40 0
-21 -40 0
-25 -42 0
-23 -44 0
-21 -49 0
-24 -48 0
-21 -53 0
-25 -54 0
-21 -57 0
-24 -60 0
-22 -61 0
-21 -63 0
-23 -66 0
-23 -67 0
-25 -77 0
-21 -79 0
-23 -81 0
-24 -84 0
-24 -87 0
-23 -89 0
-24 -100 0
-21 -96 0
-22 -103 0
-23 -105 0
-24 -107 0
-21 -106 0
-24 -112 0
-21 -111 0
-21 -118 0
-24 -118 0
-24 -122 0
-24 -123 0
-22 -127 0
-21 -126 0
-22 -134 0
-21 -134 0
-22 -137 0
-23 -139 0
-22 -143 0
-24 -143 0
-21 -147 0
-24 -149 0
-24 -154 0
-22 -155 0
-25 -157 0
-23 -159 0
-22 -165 0
-22 -164 0
-24 -166 0
-22 -166 0
-24 -173 0
-21 -175 0
-24 -185 0
-22 -182 0
-22 -188 0
-21 -188 0
-25 -191 0
-21 -191 0
-27 -34 0
-27 -35 0
-26 -44 0
-27 -42 0
-27 -58 0
-29 -59 0
-26 -71 0
-28 -75 0
-29 -79 0
-26 -80 0
-26 -83 0
-29 -84 0
-27 -90 0
-29 -88 0
-28 -105 0
-29 -105 0
-29 -112 0
-28 -111 0
-27 -116 0
-30 -118 0
-28 -126 0
-27 -129 0
-27 -131 0
-30 -133 0
-27 -152 0
-26 -151 0
-28 -167 0
-29 -167 0
-29 -172 0
-30 -173 0
-29 -189 0
-30 -186 0
-30 -193 0
-27 -191 0
-30 -200 0
-26 -199 0
-32 -45 0
-32 -42 0
-34 -47 0
-32 -50 0
-33 -52 0
-34 -51 0
-34 -58 0
-35 -57 0
-31 -67 0
-34 -67 0
-34 -73 0
-35 -72 0
-32 -79 0
-35 -80 0
-33 -85 0
-35 -84 0
-35 -97 0
-32 -99 0
-32 -101 0
-33 -101 0
-31 -110 0
-35 -108 0
-31 -112 0
-32 -115 0
-33 -117 0
-32 -120 0
-32 -121 0
-35 -123 0
-31 -128 0
-35 -127 0
-31 -132 0
-32 -134 0
-35 -137 0
-34 -140 0
-35 -141 0
-35 -144 0
-31 -154 0
-32 -151 0
-31 -160 0
-31 -159 0
-31 -165 0
-34 -163 0
-34 -169 0
-33 -168 0
-34 -173 0
-31 -172 0
-32 -181 0
-33 -182 0
-32 -187 0
-35 -189 0
-33 -195 0
-31 -194 0
-36 -44 0
-38 -42 0
-38 -50 0
-38 -48 0
-38 -54 0
-38 -53 0
-40 -61 0
-38 -62 0
-40 -69 0
-39 -68 0
-39 -72 0
-39 -71 0
-38 -77 0
-39 -78 0
-39 -84 0
-38 -83 0
-40 -93 0
-39 -92 0
-36 -112 0
-40 -112 0
-39 -116 0
-40 -117 0
-36 -160 0
-38 -159 0
-39 -163 0
-40 -165 0
-39 -169 0
-36 -170 0
-37 -175 0
-36 -174 0
-38 -179 0
-37 -179 0
-40 -182 0
-40 -183 0
-40 -189 0
-36 -187 0
-41 -49 0
-41 -46 0
-41 -51 0
-44 -55 0
-45 -59 0
-44 -60 0
-41 -65 0
-44 -63 0
-41 -66 0
-44 -68 0
-45 -76 0
-45 -80 0
-42 -85 0
-42 -81 0
-44 -87 0
-45 -86 0
-42 -95 0
-44 -95 0
-44 -97 0
-43 -99 0
-45 -105 0
-44 -102 0
-45 -107 0
-41 -107 0
-45 -117 0
-44 -118 0
-42 -121 0
-45 -122 0
-45 -130 0
-41 -128 0
-44 -143 0
-45 -144 0
-44 -150 0
-45 -149 0
-45 -151 0
-43 -152 0
-43 -168 0
-42 -169 0
-41 -177 0
-42 -178 0
-41 -182 0
-44 -185 0
-43 -187 0
-45 -190 0
-44 -192 0
-45 -195 0
-44 -199 0
-41 -199 0
-46 -51 0
-49 -52 0
-49 -62 0
-47 -61 0
-49 -94 0
-46 -92 0
-50 -99 0
-46 -100 0
-46 -108 0
-50 -108 0
-48 -112 0
-50 -111 0
-49 -119 0
-49 -117 0
-49 -126 0
-50 -126 0
-50 -140 0
-48 -138 0
-50 -143 0
-50 -142 0
-48 -148 0
-46 -147 0
-47 -155 0
-49 -155 0
-49 -164 0
-47 -164 0
-48 -170 0
-46 -166 0
-48 -175 0
-46 -172 0
-48 -180 0
-47 -177 0
-46 -185 0
-47 -185 0
-48 -187 0
-48 -189 0
-46 -192 0
-50 -192 0
-46 -200 0
-49 -200 0
-51 -64 0
-53 -61 0
-52 -68 0
-54 -70 0
-53 -74 0
-54 -75 0
-51 -82 0
-54 -81 0
-55 -87 0
-54 -88 0
-54 -92 0
-51 -93 0
-51 -102 0
-52 -101 0
-51 -109 0
-53 -106 0
-51 -111 0
-54 -113 0
-55 -118 0
-53 -120 0
-51 -131 0
-53 -135 0
-55 -144 0
-53 -142 0
-52 -147 0
-53 -150 0
-55 -163 0
-54 -161 0
-55 -169 0
-51 -168 0
-52 -171 0
-54 -171 0
-52 -179 0
-52 -177 0
-51 -181 0
-54 -181 0
-54 -189 0
-51 -187 0
-53 -195 0
-54 -194 0
-58 -63 0
-60 -64 0
-58 -68 0
-57 -66 0
-56 -83 0
-57 -82 0
-60 -88 0
-57 -90 0
-59 -97 0
-56 -100 0
-56 -105 0
-56 -104 0
-56 -124 0
-60 -125 0
-59 -133 0
-57 -131 0
-57 -143 0
-58 -145 0
-58 -146 0
-60 -147 0
-56 -159 0
-59 -158 0
-57 -165 0
-58 -162 0
-59 -177 0
-59 -176 0
-57 -182 0
-57 -185 0
-56 -186 0
-60 -186 0
-65 -66 0
-61 -68 0
-62 -72 0
-65 -75 0
-64 -78 0
-62 -80 0
-64 -82 0
-64 -84 0
-62 -88 0
-65 -90 0
-62 -93 0
-61 -95 0
-61 -98 0
-62 -100 0
-63 -108 0
-63 -106 0
-65 -113 0
-62 -112 0
-64 -125 0
-64 -124 0
-63 -128 0
-62 -128 0
-63 -135 0
-63 -132 0
-62 -141 0
-65 -145 0
-64 -149 0
-62 -150 0
-65 -162 0
-61 -165 0
-61 -169 0
-65 -169 0
-63 -175 0
-65 -172 0
-65 -176 0
-63 -179 0
-64 -181 0
-64 -183 0
-61 -199 0
-62 -196 0
-68 -78 0
-69 -78 0
-67 -81 0
-68 -82 0
-70 -90 0
-70 -88 0
-70 -95 0
-67 -95 0
-66 -98 0
-69 -98 0
-69 -102 0
-69 -103 0
-70 -109 0
-66 -108 0
-69 -113 0
-68 -112 0
-66 -119 0
-70 -120 0
-70 -123 0
-67 -124 0
-70 -129 0
-66 -128 0
-70 -132 0
-66 -132 0
-67 -147 0
-70 -147 0
-67 -152 0
-66 -154 0
-68 -160 0
-70 -156 0
-70 -161 0
-69 -162 0
-69 -169 0
-70 -166 0
-68 -172 0
-69 -171 0
-69 -180 0
-66 -176 0
-69 -195 0
-70 -194 0
-68 -196 0
-68 -197 0
-72 -80 0
-75 -78 0
-73 -84 0
-72 -84 0
-75 -92 0
-72 -95 0
-74 -96 0
-74 -98 0
-72 -108 0
-74 -109 0
-71 -112 0
-73 -112 0
-71 -119 0
-71 -118 0
-75 -127 0
-73 -128 0
-74 -137 0
-75 -139 0
-75 -150 0
-71 -148 0
-72 -160 0
-72 -156 0
-71 -163 0
-73 -164 0
-71 -167 0
-75 -168 0
-73 -172 0
-71 -172 0
-75 -180 0
-74 -180 0
-73 -190 0
-72 -189 0
-71 -195 0
-72 -194 0
-74 -198 0
-71 -200 0
-79 -92 0
-80 -95 0
-76 -96 0
-77 -100 0
-78 -106 0
-77 -108 0
-79 -114 0
-79 -113 0
-77 -117 0
-76 -120 0
-80 -121 0
-76 -124 0
-80 -127 0
-78 -127 0
-79 -136 0
-78 -136 0
-80 -144 0
-77 -141 0
-79 -147 0
-76 -147 0
-77 -155 0
-79 -155 0
-76 -164 0
-79 -163 0
-79 -168 0
-79 -166 0
-79 -171 0
-79 -174 0
-78 -179 0
-78 -180 0
-78 -183 0
-76 -181 0
-77 -189 0
-80 -186 0
-79 -191 0
-80 -195 0
-79 -198 0
-76 -196 0
-82 -92 0
-81 -94 0
-82 -106 0
-85 -108 0
-85 -113 0
-81 -114 0
-81 -120 0
-85 -119 0
-84 -123 0
-81 -125 0
-82 -126 0
-83 -128 0
-83 -132 0
-84 -134 0
-81 -139 0
-85 -138 0
-85 -147 0
-82 -147 0
-85 -151 0
-83 -152 0
-83 -161 0
-82 -163 0
-84 -172 0
-84 -171 0
-82 -181 0
-85 -182 0
-81 -194 0
-83 -195 0
-82 -196 0
-85 -200 0
-86 -92 0
-90 -93 0
-88 -97 0
-86 -100 0
-89 -117 0
-86 -116 0
-90 -125 0
-88 -122 0
-89 -139 0
-89 -137 0
-90 -145 0
-86 -144 0
-87 -150 0
-86 -146 0
-87 -155 0
-86 -153 0
-87 -158 0
-88 -159 0
-88 -163 0
-89 -163 0
-88 -167 0
-88 -168 0
-89 -171 0
-90 -175 0
-87 -179 0
-90 -177 0
-86 -183 0
-90 -181 0
-86 -187 0
-86 -186 0
-95 -100 0
-91 -96 0
-93 -101 0
-93 -105 0
-91 -110 0
-95 -109 0
-91 -117 0
-94 -116 0
-93 -124 0
-92 -124 0
-91 -128 0
-94 -130 0
-95 -131 0
-91 -132 0
-95 -143 0
-93 -145 0
-95 -146 0
-94 -146 0
-93 -161 0
-92 -162 0
-95 -173 0
-93 -172 0
-92 -178 0
-94 -177 0
-93 -181 0
-94 -181 0
-96 -102 0
-97 -103 0
-97 -112 0
-99 -112 0
-97 -118 0
-97 -116 0
-98 -123 0
-99 -125 0
-98 -129 0
-96 -129 0
-100 -131 0
-96 -133 0
-98 -136 0
-100 -137 0
-98 -149 0
-96 -150 0
-99 -155 0
-100 -155 0
-98 -168 0
-96 -168 0
-100 -179 0
-96 -178 0
-97 -189 0
-100 -189 0
-100 -192 0
-100 -191 0
-96 -198 0
-100 -196 0
-102 -111 0
-104 -115 0
-104 -120 0
-102 -119 0
-102 -122 0
-101 -122 0
-102 -128 0
-104 -128 0
-104 -134 0
-102 -132 0
-103 -145 0
-103 -141 0
-104 -159 0
-105 -160 0
-102 -162 0
-104 -163 0
-101 -169 0
-103 -169 0
-101 -173 0
-104 -174 0
-102 -182 0
-101 -184 0
-101 -193 0
-105 -194 0
-107 -118 0
-106 -117 0
-106 -126 0
-108 -127 0
-108 -134 0
-109 -132 0
-107 -148 0
-110 -150 0
-106 -153 0
-108 -155 0
-106 -159 0
-110 -160 0
-109 -162 0
-106 -165 0
-108 -166 0
-108 -167 0
-109 -172 0
-109 -173 0
-108 -182 0
-109 -184 0
-109 -186 0
-107 -187 0
-109 -194 0
-107 -192 0
-109 -198 0
-110 -197 0
-115 -118 0
-113 -120 0
-113 -127 0
-112 -130 0
-115 -133 0
-114 -132 0
-115 -142 0
-112 -142 0
-113 -152 0
-112 -153 0
-115 -160 0
-113 -158 0
-113 -162 0
-114 -164 0
-111 -168 0
-114 -166 0
-113 -176 0
-112 -177 0
-115 -190 0
-115 -187 0
-112 -200 0
-113 -200 0
-119 -125 0
-120 -124 0
-117 -127 0
-117 -129 0
-117 -141 0
-117 -143 0
-117 -154 0
-120 -154 0
-118 -164 0
-117 -165 0
-120 -167 0
-117 -170 0
-117 -190 0
-119 -187 0
-119 -194 0
-119 -192 0
-119 -197 0
-120 -197 0
-124 -126 0
-125 -130 0
-121 -134 0
-123 -133 0
-121 -147 0
-125 -149 0
-122 -160 0
-124 -157 0
-121 -166 0
-123 -168 0
-121 -190 0
-125 -187 0
-125 -195 0
-122 -195 0
-125 -196 0
-122 -200 0
-129 -132 0
-126 -131 0
-129 -137 0
-127 -138 0
-129 -144 0
-130 -143 0
-127 -160 0
-130 -156 0
-129 -167 0
-128 -170 0
-130 -171 0
-127 -172 0
-129 -179 0
-128 -180 0
-130 -181 0
-130 -185 0
-130 -189 0
-126 -186 0
-130 -191 0
-129 -191 0
-133 -138 0
-133 -140 0
-132 -141 0
-134 -141 0
-135 -148 0
-134 -150 0
-132 -154 0
-131 -155 0
-132 -158 0
-133 -160 0
-135 -162 0
-132 -163 0
-132 -170 0
-133 -167 0
-134 -175 0
-131 -172 0
-131 -178 0
-131 -177 0
-131 -185 0
-132 -181 0
-131 -192 0
-132 -192 0
-134 -197 0
-133 -199 0
-136 -144 0
-137 -141 0
-139 -149 0
-136 -147 0
-139 -155 0
-136 -151 0
-138 -161 0
-137 -164 0
-138 -169 0
-136 -166 0
-138 -176 0
-137 -178 0
-137 -185 0
-140 -182 0
-137 -190 0
-139 -190 0
-139 -197 0
-136 -200 0
-144 -150 0
-145 -150 0
-141 -156 0
-144 -156 0
-142 -164 0
-144 -164 0
-143 -170 0
-143 -169 0
-143 -174 0
-144 -173 0
-145 -180 0
-143 -180 0
-143 -190 0
-144 -190 0
-144 -195 0
-143 -193 0
-145 -196 0
-143 -198 0
-150 -153 0
-150 -151 0
-149 -156 0
-148 -160 0
-146 -168 0
-146 -167 0
-150 -181 0
-149 -183 0
-149 -186 0
-150 -190 0
-147 -196 0
-149 -197 0
-155 -165 0
-154 -164 0
-153 -166 0
-152 -166 0
-153 -175 0
-153 -173 0
-152 -179 0
-155 -178 0
-151 -182 0
-154 -184 0
-155 -187 0
-152 -188 0
-154 -195 0
-154 -192 0
-153 -198 0
-155 -197 0
-157 -163 0
-160 -163 0
-156 -170 0
-157 -167 0
-157 -180 0
-160 -180 0
-156 -183 0
-156 -182 0
-157 -190 0
-156 -186 0
-159 -195 0
-160 -191 0
-156 -200 0
-159 -197 0
-161 -180 0
-161 -178 0
-164 -190 0
-164 -189 0
-164 -194 0
-163 -194 0
-161 -200 0
-164 -199 0
-169 -184 0
-170 -183 0
-168 -186 0
-170 -189 0
-168 -195 0
-166 -195 0
-166 -196 0
-170 -196 0
-173 -194 0
-173 -195 0
-171 -200 0
-174 -198 0
-177 -189 0
-176 -187 0
-177 -192 0
-180 -195 0
-180 -200 0
-179 -196 0
-183 -192 0
-183 -194 0
-183 -197 0
-183 -199 0
-187 -199 0
-189 -200 0
-192 -198 0
-194 -197 0
